 # Version information for this restart file 
 # current date 2026-07-01 23:44:42.015
 # current working dir /home/ftfan/ncw/sfs/CoOH/cp2k/Al16/geo_opt_U100_highspin_5OHbg_localR7p5_fromR6_multisite_retry1_20260701/site03_bulk_Co7_adjAl/O_M144_retry1
 # Program compiled at                              Tue Feb 27 20:42:14 CST 2024
 # Program compiled on                                                     login
 # Program compiled for                                                    local
 # Source code revision number                                       git:b4a17a5
 &GLOBAL
   PRINT_LEVEL LOW
  PROJECT_NAME cdf_base_al16_valid_co48_O
  RUN_TYPE ENERGY
 &END GLOBAL
 &MOTION
   &GEO_OPT
     TYPE MINIMIZATION
     OPTIMIZER BFGS
     MAX_ITER 300
     MAX_DR  3.0000000000000001E-003
     MAX_FORCE  4.4999999999999999E-004
     RMS_DR  1.5000000000000000E-003
     RMS_FORCE  2.9999999999999997E-004
     STEP_START_VAL 0
     KEEP_SPACE_GROUP F
     &BFGS
       TRUST_RADIUS  3.0000000000000013E-002
     &END BFGS
   &END GEO_OPT
   &CONSTRAINT
     &FIXED_ATOMS
       COMPONENTS_TO_FIX XYZ
       LIST 1..9 11 17..24 33..40 49..55 57..59 62 67..70 72 \
        73 75 77 85..88 90 91 93 95 103..111 113..117 \
        119 120 122..124 130 136 139 140 142..147 149..153 155 \
        156 159 160 166 175..183 185..189 191 192 195 196 \
        202 208
     &END FIXED_ATOMS
   &END CONSTRAINT
   &PRINT
     &TRAJECTORY SILENT
       FORMAT XMOL
     &END TRAJECTORY
     &RESTART SILENT
       BACKUP_COPIES 0
     &END RESTART
   &END PRINT
 &END MOTION
 &FORCE_EVAL
   METHOD QS
   &DFT
     BASIS_SET_FILE_NAME BASIS_MOLOPT_UZH
     POTENTIAL_FILE_NAME POTENTIAL
    WFN_RESTART_FILE_NAME seed-RESTART.wfn
     UKS T
     MULTIPLICITY 142
     CHARGE 0
     &SCF
       MAX_SCF 500
       EPS_SCF  9.9999999999999995E-007
       SCF_GUESS RESTART
       &OT T
         ALGORITHM STRICT
         MINIMIZER CG
         LINESEARCH 2PNT
         PRECONDITIONER FULL_SINGLE_INVERSE
       &END OT
       &OUTER_SCF T
         EPS_SCF  9.9999999999999995E-007
         MAX_SCF 80
       &END OUTER_SCF
       &PRINT
         &RESTART SILENT
           BACKUP_COPIES 0
         &END RESTART
       &END PRINT
     &END SCF
     &QS
       EPS_DEFAULT  1.0000000000000000E-008
     &END QS
     &MGRID
       CUTOFF  4.0000000000000000E+002
       REL_CUTOFF  5.5000000000000000E+001
     &END MGRID
     &XC
       DENSITY_CUTOFF  1.0000000000000000E-010
       GRADIENT_CUTOFF  1.0000000000000000E-010
       TAU_CUTOFF  1.0000000000000000E-010
       &XC_FUNCTIONAL NO_SHORTCUT
         &PBE T
         &END PBE
       &END XC_FUNCTIONAL
     &END XC
     &POISSON
       PERIODIC XYZ
     &END POISSON
    &PRINT
      &MULLIKEN ON
      &END MULLIKEN
      &HIRSHFELD ON
        SHAPE_FUNCTION GAUSSIAN
      &END HIRSHFELD
      &PLUS_U ON
      &END PLUS_U
    &END PRINT
   &END DFT
   &SUBSYS
     &CELL
       A  8.6482000351000003E+000  0.0000000000000000E+000  0.0000000000000000E+000
       B  0.0000000000000000E+000  2.6079299926800001E+001  0.0000000000000000E+000
       C  0.0000000000000000E+000  0.0000000000000000E+000  2.1657400131199999E+001
       PERIODIC XYZ
       MULTIPLE_UNIT_CELL 1 1 1
     &END CELL
     &COORD
       Co       0.0754578103       0.4876573046       0.4815073861
       Co       1.4409089432       4.4764405283       0.9592781335
       Co      -0.0020667368       8.7154711318       1.1253892623
       Co       1.4454040462       0.0775753225       2.8141726832
       Al       0.0019124383       4.4033533911       3.5980436911
       Co       1.4377914429       8.7207314974       3.8475649764
       Co       0.0011654154      25.9895447752       5.4583800082
       Co       1.4284108842       4.3223407618       6.1044985682
       Al      -0.0825353733      13.4482511206       0.4775314753
       Co       1.4386748484      17.6119460995       0.8750620918
       Al       0.0084125382      21.7604914756       1.1212218717
       Co       1.4420408240      13.1304752020       2.9643277311
       Co      -0.0022065379      17.4453404427       3.5368024144
       Co       1.5109891852      21.5965544980       3.6882749304
       Co       0.0056082694      12.9649283755       5.7722468041
       Co       1.4373884550      17.4477623992       6.2568293443
       Co       2.8775272989       0.4066334890       0.4035795015
       Co       4.3244811115       4.4841641154       0.9608617191
       Co       2.8058718359       8.6426097692       1.0430470986
       Co       4.3190838592       0.0776178336       2.7350413226
       Co       2.8796466216       4.4034414438       3.6003265436
       Al       4.3264016921       8.6359251911       3.6125116419
       Al       2.9577809173      25.8418414576       5.2864556976
       Co       4.3200832317       4.2398182193       6.0228124683
       Co       2.8948865330      13.0393586085       0.3821587211
       Al       4.3511316220      17.5398778680       0.9762788517
       Co       2.8810742752      21.6640456941       0.7978241595
       Co       4.3252108951      13.1999276691       2.7399158836
       Co       2.8848227545      17.5187021390       3.5370191399
       Co       4.3251060966      21.5896921314       3.6105722170
       Co       2.9641525286      12.8815225594       5.2984826181
       Al       4.3043504289      17.4501930460       6.0832640565
       Al       5.7707944077      -0.0049797765       0.5545278332
       Co       7.2083064027       4.4839061561       0.9657255108
       Co       5.7634292069       8.5643872950       0.9616119639
       Co       7.2097264968       0.0115759469       2.8086409182
       Co       5.7668238372       4.4028861816       3.5324634596
       Co       7.1292462741       8.7230714339       3.9331110411
       Co       5.6934455096      25.9125415611       5.2924528095
       Co       7.2098902667       4.2395915707       6.0178913495
       Co       5.7561079298      13.4400012122       0.2261532555
       Co       7.1966013973      17.6167272606       0.8057600280
       Co       5.8440325450      21.6754052926       0.9523659596
       Co       7.2072090376      13.1203179716       2.8238175631
       Co       5.8462350682      17.5226049383       3.6018042749
       Co       7.2166310112      21.6847423031       3.9296075525
       Co       5.7636128847      12.9456031752       5.2238912780
       Co       7.2807718060      17.3623674046       6.3484329337
       H        0.0996254993       6.6324464797      21.5183673414
       H        1.3245905990      10.6789455017       0.5771089954
       H        0.0118782650       2.4756104489       2.0716122482
       H        1.3871704472       6.4609733391       2.6383144280
       H       -0.0368632066      10.7536226138       3.0647825672
       H        1.5096619736       2.0017076269       4.4776063837
       H       -0.0207137113       6.7804028042       4.9271964994
       H        1.6065235338      10.8661150172       5.7945799791
       H       -0.0107914629       1.8890441229       6.8500874120
       H       -0.0287331618      19.7697603580      21.5200039749
       H        1.4649592831      23.7761623177       0.6699424296
       H        0.0208567050      15.5071109061       1.8994332879
       H        1.4350393741      19.6449871689       2.3177104547
       H        0.0559439324      23.8451348964       3.2519685343
       H        1.5479168128      15.3498369567       4.4540755423
       H        0.1262108571      19.7264680573       4.9164895822
       H        1.5748843536      24.3837653261       6.7984614197
       H       -0.1905982806      14.5415798874       7.5080019302
       H        2.6947614663       6.5553073097      21.4359137578
       H        4.4104464102      10.5086221024       0.4060553199
       H        2.8731257907       2.4817346339       2.0057952112
       H        4.3363474042       6.6067976029       2.2181274382
       H        2.9444077887      10.7452671164       2.9264564775
       H        4.3106649365       1.9765451912       4.4622631855
       H        3.0186826788       6.7755830235       4.8131033178
       H        4.4164966753      10.4073754474       5.5185047813
       H        2.9030991723       2.6340368020       7.3835980668
       H        2.9538126228      18.9507355126      21.0804477445
       H        4.2739533012      23.6411025672       0.5234627421
       H        2.9122959781      15.4460392450       1.8068216627
       H        4.3277891743      19.5719721177       2.3232257387
       H        2.8811804102      23.8196902813       3.2768339828
       H        4.3060427593      15.3839704129       4.5200393845
       H        2.9026651376      19.6969219854       5.0321798297
       H        4.2864113741      23.9346433603       6.3144378412
       H        2.9230389211      15.6162793494       7.3891389680
       H        5.8120801030       6.5493085187      21.3766055375
       H        7.1422243228      10.6543070035       0.6023020800
       H        5.7713921308       2.4303123934       1.9785209340
       H        7.2354777700       6.7125243327       2.2226818668
       H        5.6931446478      10.6513804584       2.9330147097
       H        7.1257644164       1.9406150556       4.4647613490
       H        5.6043058737       6.7423256752       4.7867451005
       H        6.8537000749      10.5221127212       5.7932981210
       H        5.7540977288       2.5755946547       7.3859568218
       H        6.0775412725      19.7002138503      21.1819856432
       H        7.3320289341      23.7568743241       0.7065009816
       H        5.7172351213      15.4970097391       1.8946704807
       H        7.2552835700      19.7562378600       2.3809719507
       H        5.7486547682      23.7039867298       3.1508162407
       H        7.1886960433      15.3347246107       4.4452224605
       H        5.7181094284      19.7278248832       4.9220685050
       H        7.0721655313      23.8678621534       5.8204787266
       H        5.2725953127      16.8238564697       8.2195518845
       O       -0.0043808370       5.1411290399      -0.0047356751
       O        0.1637081169       7.6521680248      21.3286695859
       O        1.2955464379      12.2970807080       0.6399003003
       O        1.3698230408       9.7133818265       0.3189698728
       O        0.0106658141       3.5112032390       1.8423961554
       O       -0.0046119364       1.1542973174       2.2153966874
       O        1.4347424524       5.4473512739       2.8099658985
       O        1.3686713667       7.8250612407       2.0754213844
       O       -0.0783991084       9.7015922821       2.8870647238
       O       -0.0013331028      12.0293197577       3.3672302758
       O        1.5206700531       0.8957089978       4.5879665195
       O        1.4437164070       3.3295263193       4.3263047654
       O       -0.0096927020       5.3047689264       5.2992718071
       O       -0.0590597948       7.6495080166       4.4067337500
       O        1.5966034602       9.5309904235       5.2841382782
       O        1.5909140635      11.8686003266       6.0142833128
       O       -0.0008313897       0.8952070399       6.9793645482
       O       -0.0590169032       3.5788556869       6.9834400815
       O        0.0175328777      18.1775895240      -0.1490608836
       O       -0.0024884235      20.7805269665      21.3311104411
       O        1.4469855722      25.4178112857       0.7947713164
       O        1.4414725060      22.8093555890       0.3963427672
       O        0.0009281228      16.5432785134       1.6809618446
       O        0.0213358853      14.2256328797       2.0102120297
       O        1.4561966307      18.5058688080       2.6540844209
       O        1.4431524750      20.7865818983       1.9432064896
       O        0.0775144042      22.7277870369       2.9770795860
       O        0.0127423885      25.0756141635       3.4517636307
       O        1.5166121937      13.9308766983       4.6452617200
       O        1.5194350885      16.3887259370       4.3292953601
       O        0.0004661828      18.3263089354       5.2064368901
       O        0.1551599485      20.6890547169       4.4954614883
       O        2.3975178185      22.0043212755       7.2236982655
       O        1.5900600870      24.8288762774       5.9355550796
       O        0.3098357958      13.6975521001       7.3813246069
       O        0.1576124168      16.4730083776       7.1338036418
       O        2.8878178287       5.1313874810      -0.0113131997
       O        2.5642529964       7.5856144629      21.2611651334
       O        4.3384450312      12.6363296167      -0.5753605303
       O        4.3264370452       9.5456988410       0.1650122644
       O        2.8748010207       3.5208507678       1.8492169701
       O        2.8811121369       1.1493942020       2.0899552255
       O        4.3231634569       5.3769033019       2.6631195613
       O        4.3143473596       7.6590310649       1.8472174639
       O        2.9513780968       9.6804584932       2.7429095178
       O        2.9603421205      11.9991621648       3.2085016147
       O        4.3213786590       0.8960714816       4.4939023490
       O        4.3253661547       3.3490042309       4.3374006526
       O        2.8970068366       5.3018147711       5.3047396453
       O        2.9549486579       7.5706449726       4.1712656682
       O        4.4808890045       9.4560845011       5.2042995722
       O        4.4152385641      11.9917780771       6.0079828781
       O        3.6682496240       0.8967764821       6.9846823579
       O        2.8941090453       3.5701300248       7.0723693373
       O        2.9770373698      18.0264987131      -0.1580759985
       O        2.8024340238      20.5325081233      21.1715332395
       O        4.2065429203      25.2689238094       0.7144012467
       O        4.3424233279      22.6805535025       0.2483423145
       O        2.9584482409      16.5319011526       1.6890170788
       O        2.8792408553      14.1715531202       1.9314766198
       O        4.3213993514      18.4964672998       2.5699441229
       O        4.3125437929      20.7821561251       1.9206400517
       O        2.8902845050      22.7367311469       3.1994872119
       O        2.8900661856      25.0872679608       3.3654548694
       O        4.3218721135      14.0277625500       4.5816880208
       O        4.3192310864      16.4475446798       4.4713554295
       O        2.9640788149      18.4362458924       5.3647001936
       O        2.8949119509      20.7124321998       4.5646428553
       O        3.6078363419      22.0047878337       6.9876645638
       O        4.2559611486      24.6794831585       5.6928370262
       O        3.5980327664      13.8513692245       8.3440748580
       O        2.9647340445      16.4563049212       6.9003662805
       O        5.7651717304       5.1348209502       0.0052431307
       O        5.8437733539       7.5732797836      21.1733672062
       O        7.1781238989      12.3183295089       0.7965948699
       O        7.1966322446       9.6914916830       0.3152323407
       O        5.7670161225       3.4980745510       1.8321769153
       O        5.7718845139       1.1420397789       2.0846256632
       O        7.2132617635       5.3831171095       2.6990992123
       O        7.2095920927       7.7408540886       1.9274913847
       O        5.6929381794       9.6354656964       2.7267784817
       O        5.6955184216      12.0481228609       3.3810994341
       O        7.1237742268       0.8954407800       4.5706299852
       O        7.2046374400       3.3480890499       4.3273845408
       O        5.7548077267       5.2891188310       5.3053724528
       O        5.6810863543       7.4857522194       4.0908743177
       O        6.7303890256       9.5211099580       5.5258452216
       O        7.0215466154      11.9632896319       6.0194272640
       O        4.9838149295       0.8212559448       7.0583528204
       O        5.7669534962       3.5067733539       7.0552142958
       O        5.6956948058      18.1863952761      -0.0111800321
       O        6.3134527617      20.6893140055      21.1078925264
       O        7.3713938778      25.3511211342       0.7985778131
       O        7.2796484800      22.8053713773       0.3976956269
       O        5.6854350244      16.5356920810       1.7669130603
       O        5.7642314302      14.1693707959       1.9348550872
       O        7.2182610973      18.4904922737       2.6497440653
       O        7.2889862480      20.8496544382       2.1544159158
       O        5.7708819040      22.6697634763       2.9703727398
       O        5.7463937554      25.0604125367       3.3562552637
       O        7.2131738607      13.9393518936       4.5723543066
       O        7.2199310113      16.3752559188       4.3257725811
       O        5.7718533440      18.2745407757       5.2938471991
       O        5.6806633671      20.6228483248       4.4213299529
       O        7.2039328771      22.4799117199       5.3804154711
       O        7.0573423027      24.8763429875       5.9425878052
       O        4.6491341949      13.7729635678       8.9852833602
       O        5.3578248798      17.5196133706       7.5425674532
       O        1.6024055673       5.8745948328       7.4638799131
       H        1.3835490438       5.4967247955       8.3475479068
       O        1.2798275397      18.8175701351       7.6956411973
       H        1.2082004184      18.3573568500       8.5596420993
       O        4.3299610869       5.7128227430       7.5442865116
       H        4.0352122609       5.2644269368       8.3641616191
       O        6.9639766022       5.8651192681       7.5399343696
       H        5.9264056018       5.9639140796       7.5978344385
       O        7.6113430122      18.9826520756       7.5328790239
       H        7.3805225732      18.7582696110       8.4615544921
       O        7.0262877751      15.7415286996       7.0508329748
     &END COORD
     &KIND "Co"
       BASIS_SET "TZVP-MOLOPT-PBE-GTH-q17"
       MAGNETIZATION  3.0000000000000000E+000
       ELEMENT "Co"
       POTENTIAL "GTH-PBE"
       &POTENTIAL
 4 6 7
 3.5499999999999998E-001 2  4.8281973599999999E+000  3.6814300999999999E-001
 3
 2.7680075999999998E-001 2 -5.8449582000000000E-001  9.2862927699999993E+000
 -1.1988552420000000E+001
 2.6815782999999999E-001 2 -6.8519534899999996E+000  5.6801328000000000E+000
 -6.7208237600000000E+000
 2.2258414000000001E-001 1 -1.2333150190000000E+001
       &END POTENTIAL
       &DFT_PLUS_U T
         L 2
         U_MINUS_J  1.2127277382862318E-001
       &END DFT_PLUS_U
     &END KIND
     &KIND "H"
       BASIS_SET "TZVP-MOLOPT-PBE-GTH-q1"
       ELEMENT "H"
       POTENTIAL "GTH-PBE"
       &POTENTIAL
 1
 2.0000000000000001E-001 2 -4.1789004399999996E+000  7.2446330999999997E-001
 0
       &END POTENTIAL
     &END KIND
     &KIND "O"
       BASIS_SET "TZVP-MOLOPT-PBE-GTH-q6"
       ELEMENT "O"
       POTENTIAL "GTH-PBE"
       &POTENTIAL
 2 4
 2.4455430000000000E-001 2 -1.6667214800000000E+001  2.4873113199999999E+000
 2
 2.2095592000000000E-001 1  1.8337458110000000E+001
 2.1133246999999999E-001 0
       &END POTENTIAL
     &END KIND
     &KIND "Al"
       BASIS_SET "DZVP-MOLOPT-PBE-GTH-q3"
       ELEMENT "Al"
       POTENTIAL "GTH-PBE"
       &POTENTIAL
 2 1
 4.5000000000000001E-001 1 -7.5547612600000003E+000
 2
 4.8743529000000002E-001 2  6.9599383200000000E+000 -1.8888358400000000E+000
 2.4384765900000001E+000
 5.6218948999999996E-001 1  1.8652985700000000E+000
       &END POTENTIAL
     &END KIND
     &TOPOLOGY
       NUMBER_OF_ATOMS 221
       MULTIPLE_UNIT_CELL 1 1 1
     &END TOPOLOGY
   &END SUBSYS
 &END FORCE_EVAL
