 # Version information for this restart file 
 # current date 2026-07-01 23:44:49.243
 # current working dir /home/ftfan/ncw/sfs/CoOH/cp2k/Al16/geo_opt_U100_highspin_5OHbg_localR7p5_fromR6_multisite_retry1_20260701/site03_bulk_Co7_adjAl/OH_M151_retry1
 # Program compiled at                              Tue Feb 27 20:42:14 CST 2024
 # Program compiled on                                                     login
 # Program compiled for                                                    local
 # Source code revision number                                       git:b4a17a5
 &GLOBAL
   PRINT_LEVEL LOW
  PROJECT_NAME cdf_base_al16_valid_co48_OH
  RUN_TYPE ENERGY
 &END GLOBAL
 &MOTION
   &GEO_OPT
     TYPE MINIMIZATION
     OPTIMIZER BFGS
     MAX_ITER 300
     MAX_DR  3.0000000000000001E-003
     MAX_FORCE  4.4999999999999999E-004
     RMS_DR  1.5000000000000000E-003
     RMS_FORCE  2.9999999999999997E-004
     STEP_START_VAL 0
     KEEP_SPACE_GROUP F
     &BFGS
       TRUST_RADIUS  3.0000000000000013E-002
     &END BFGS
   &END GEO_OPT
   &CONSTRAINT
     &FIXED_ATOMS
       COMPONENTS_TO_FIX XYZ
       LIST 1..9 11 17..24 33..40 49..55 57..59 62 67..70 72 \
        73 75 77 85..88 90 91 93 95 103..111 113..117 \
        119 120 122..124 130 136 139 140 142..147 149..153 155 \
        156 159 160 166 175..183 185..189 191 192 195 196 \
        202 208
     &END FIXED_ATOMS
   &END CONSTRAINT
   &PRINT
     &TRAJECTORY SILENT
       FORMAT XMOL
     &END TRAJECTORY
     &RESTART SILENT
       BACKUP_COPIES 0
     &END RESTART
   &END PRINT
 &END MOTION
 &FORCE_EVAL
   METHOD QS
   &DFT
     BASIS_SET_FILE_NAME BASIS_MOLOPT_UZH
     POTENTIAL_FILE_NAME POTENTIAL
    WFN_RESTART_FILE_NAME seed-RESTART.wfn
     UKS T
     MULTIPLICITY 149
     CHARGE 0
     &SCF
       MAX_SCF 500
       EPS_SCF  9.9999999999999995E-007
       SCF_GUESS RESTART
       &OT T
         ALGORITHM STRICT
         MINIMIZER CG
         LINESEARCH 2PNT
         PRECONDITIONER FULL_SINGLE_INVERSE
       &END OT
       &OUTER_SCF T
         EPS_SCF  9.9999999999999995E-007
         MAX_SCF 80
       &END OUTER_SCF
       &PRINT
         &RESTART SILENT
           BACKUP_COPIES 0
         &END RESTART
       &END PRINT
     &END SCF
     &QS
       EPS_DEFAULT  1.0000000000000000E-008
     &END QS
     &MGRID
       CUTOFF  4.0000000000000000E+002
       REL_CUTOFF  5.5000000000000000E+001
     &END MGRID
     &XC
       DENSITY_CUTOFF  1.0000000000000000E-010
       GRADIENT_CUTOFF  1.0000000000000000E-010
       TAU_CUTOFF  1.0000000000000000E-010
       &XC_FUNCTIONAL NO_SHORTCUT
         &PBE T
         &END PBE
       &END XC_FUNCTIONAL
     &END XC
     &POISSON
       PERIODIC XYZ
     &END POISSON
    &PRINT
      &MULLIKEN ON
      &END MULLIKEN
      &HIRSHFELD ON
        SHAPE_FUNCTION GAUSSIAN
      &END HIRSHFELD
      &PLUS_U ON
      &END PLUS_U
    &END PRINT
   &END DFT
   &SUBSYS
     &CELL
       A  8.6482000351000003E+000  0.0000000000000000E+000  0.0000000000000000E+000
       B  0.0000000000000000E+000  2.6079299926800001E+001  0.0000000000000000E+000
       C  0.0000000000000000E+000  0.0000000000000000E+000  2.1657400131199999E+001
       PERIODIC XYZ
       MULTIPLE_UNIT_CELL 1 1 1
     &END CELL
     &COORD
       Co       0.0754578103       0.4876573046       0.4815073861
       Co       1.4409089432       4.4764405283       0.9592781335
       Co      -0.0020667368       8.7154711318       1.1253892623
       Co       1.4454040462       0.0775753225       2.8141726832
       Al       0.0019124383       4.4033533911       3.5980436911
       Co       1.4377914429       8.7207314974       3.8475649764
       Co       0.0011654154      25.9895447752       5.4583800082
       Co       1.4284108842       4.3223407618       6.1044985682
       Al      -0.0825353733      13.4482511206       0.4775314753
       Co       1.4428936922      17.6015567664       0.8901641326
       Al       0.0084125382      21.7604914756       1.1212218717
       Co       1.4448276013      13.1315590186       2.9778590611
       Co      -0.0123321153      17.4413624659       3.5337024699
       Co       1.5193216565      21.5967572977       3.6973561145
       Co      -0.0011738330      12.9631169436       5.7751422856
       Co       1.3536453301      17.4461996107       6.2624957758
       Co       2.8775272989       0.4066334890       0.4035795015
       Co       4.3244811115       4.4841641154       0.9608617191
       Co       2.8058718359       8.6426097692       1.0430470986
       Co       4.3190838592       0.0776178336       2.7350413226
       Co       2.8796466216       4.4034414438       3.6003265436
       Al       4.3264016921       8.6359251911       3.6125116419
       Al       2.9577809173      25.8418414576       5.2864556976
       Co       4.3200832317       4.2398182193       6.0228124683
       Co       2.8838769569      13.0344055588       0.3124791556
       Al       4.3941434874      17.5173136089       0.8437576178
       Co       2.8810485206      21.6689140724       0.7958300881
       Co       4.3209004534      13.1944069996       2.7384258819
       Co       2.8992992235      17.5192254747       3.5236145912
       Co       4.3248554081      21.5897140206       3.6143695382
       Co       2.9621319584      12.8803340957       5.2928215287
       Al       4.3019804572      17.3856467442       6.1318505402
       Al       5.7707944077      -0.0049797765       0.5545278332
       Co       7.2083064027       4.4839061561       0.9657255108
       Co       5.7634292069       8.5643872950       0.9616119639
       Co       7.2097264968       0.0115759469       2.8086409182
       Co       5.7668238372       4.4028861816       3.5324634596
       Co       7.1292462741       8.7230714339       3.9331110411
       Co       5.6934455096      25.9125415611       5.2924528095
       Co       7.2098902667       4.2395915707       6.0178913495
       Co       5.7624229660      13.4523260148       0.2488684132
       Co       7.2009441827      17.6184578458       0.7118525578
       Co       5.8481114269      21.6752580214       0.9501789182
       Co       7.2047692447      13.1207434533       2.8868337746
       Co       5.8428339231      17.5270982863       3.6894351293
       Co       7.2263614268      21.6812603747       3.9257818820
       Co       5.7612133885      12.9444003775       5.2274719695
       Co       7.1222690078      17.6069430124       6.7342109873
       H        0.0996254993       6.6324464797      21.5183673414
       H        1.3245905990      10.6789455017       0.5771089954
       H        0.0118782650       2.4756104489       2.0716122482
       H        1.3871704472       6.4609733391       2.6383144280
       H       -0.0368632066      10.7536226138       3.0647825672
       H        1.5096619736       2.0017076269       4.4776063837
       H       -0.0207137113       6.7804028042       4.9271964994
       H        1.5917197032      10.8752246434       5.8154580837
       H       -0.0107914629       1.8890441229       6.8500874120
       H       -0.0287331618      19.7697603580      21.5200039749
       H        1.4649592831      23.7761623177       0.6699424296
       H        0.0400097462      15.5485281786       1.8617724625
       H        1.4398408274      19.7717956486       2.1887166274
       H        0.0559439324      23.8451348964       3.2519685343
       H        1.5372969299      15.3980046148       4.5148544674
       H        0.0815854774      19.7138087664       4.9282501517
       H        1.6185428919      24.2802699529       6.7363013823
       H       -0.6223300692      14.4369507858       7.5714563094
       H        2.6947614663       6.5553073097      21.4359137578
       H        4.4104464102      10.5086221024       0.4060553199
       H        2.8731257907       2.4817346339       2.0057952112
       H        4.3363474042       6.6067976029       2.2181274382
       H        2.9659881255      10.7054668906       2.9787428272
       H        4.3106649365       1.9765451912       4.4622631855
       H        3.0186826788       6.7755830235       4.8131033178
       H        4.4394306244      10.4175450842       5.5051939642
       H        2.9030991723       2.6340368020       7.3835980668
       H        2.9579007490      19.0147462599      21.0844005860
       H        4.2739533012      23.6411025672       0.5234627421
       H        2.9338018871      15.4562003215       1.7321028050
       H        4.3858347646      19.7051634564       2.1083685907
       H        2.9392834182      23.7890128363       3.1380530386
       H        4.3271646933      15.3610005679       4.5845519420
       H        2.9921103787      19.4341197499       4.9989549231
       H        4.2545867869      23.7934664689       5.8977291699
       H        2.8518383965      15.5986051890       7.3649623284
       H        5.8120801030       6.5493085187      21.3766055375
       H        7.1422243228      10.6543070035       0.6023020800
       H        5.7713921308       2.4303123934       1.9785209340
       H        7.2354777700       6.7125243327       2.2226818668
       H        5.6709256588      10.6429955346       2.9131673583
       H        7.1257644164       1.9406150556       4.4647613490
       H        5.6043058737       6.7423256752       4.7867451005
       H        6.8319341546      10.5351220983       5.7863270140
       H        5.7540977288       2.5755946547       7.3859568218
       H        6.0869578586      19.7672224139      21.2292292278
       H        7.3320289341      23.7568743241       0.7065009816
       H        5.6939445831      15.5030361039       1.4528631467
       H        7.2318417339      19.6937830575       2.3456054173
       H        5.7296983101      23.7034292781       3.1407700663
       H        7.1467335846      15.2774275631       4.1268220909
       H        5.6794356832      19.7357362993       4.9206852695
       H        7.0730200338      23.8658708422       5.8305260005
       H        5.1002403554      16.8718235278       8.3282500018
       O       -0.0043808370       5.1411290399      -0.0047356751
       O        0.1637081169       7.6521680248      21.3286695859
       O        1.2955464379      12.2970807080       0.6399003003
       O        1.3698230408       9.7133818265       0.3189698728
       O        0.0106658141       3.5112032390       1.8423961554
       O       -0.0046119364       1.1542973174       2.2153966874
       O        1.4347424524       5.4473512739       2.8099658985
       O        1.3686713667       7.8250612407       2.0754213844
       O       -0.0783991084       9.7015922821       2.8870647238
       O       -0.0076938269      12.0494329814       3.3720694536
       O        1.5206700531       0.8957089978       4.5879665195
       O        1.4437164070       3.3295263193       4.3263047654
       O       -0.0096927020       5.3047689264       5.2992718071
       O       -0.0590597948       7.6495080166       4.4067337500
       O        1.5966034602       9.5309904235       5.2841382782
       O        1.5895935809      11.8769757607       6.0238875821
       O       -0.0008313897       0.8952070399       6.9793645482
       O       -0.0590169032       3.5788556869       6.9834400815
       O        0.0721466152      18.2485640529      -0.1616765624
       O       -0.0024884235      20.7805269665      21.3311104411
       O        1.4469855722      25.4178112857       0.7947713164
       O        1.4414725060      22.8093555890       0.3963427672
       O        0.0124475833      16.5427711266       1.6010316856
       O        0.0710420322      14.2026421550       2.0051853964
       O        1.4584760217      18.4218023039       2.6247166885
       O        1.4346726182      20.7840843558       1.9215182464
       O        0.0730339245      22.7234307953       2.9686991273
       O        0.0127423885      25.0756141635       3.4517636307
       O        1.5063932767      13.9516225840       4.6537807843
       O        1.5101171340      16.4395802678       4.4045320268
       O       -0.1636798750      18.1665213394       5.2933442859
       O        0.1538764590      20.6244288571       4.4899225234
       O        2.3924684811      22.3280887291       5.6980134596
       O        1.5900600870      24.8288762774       5.9355550796
       O        0.0853185971      13.7750232556       7.3779601487
       O        0.0917925419      16.8760460051       7.6208223304
       O        2.8878178287       5.1313874810      -0.0113131997
       O        2.5642529964       7.5856144629      21.2611651334
       O        4.3125085386      12.6291517709      -0.5664276464
       O        4.3264370452       9.5456988410       0.1650122644
       O        2.8748010207       3.5208507678       1.8492169701
       O        2.8811121369       1.1493942020       2.0899552255
       O        4.3231634569       5.3769033019       2.6631195613
       O        4.3143473596       7.6590310649       1.8472174639
       O        2.9513780968       9.6804584932       2.7429095178
       O        2.9701182668      12.0587432852       3.3654447377
       O        4.3213786590       0.8960714816       4.4939023490
       O        4.3253661547       3.3490042309       4.3374006526
       O        2.8970068366       5.3018147711       5.3047396453
       O        2.9549486579       7.5706449726       4.1712656682
       O        4.4808890045       9.4560845011       5.2042995722
       O        4.4158807774      11.9559864037       5.9344516098
       O        3.6682496240       0.8967764821       6.9846823579
       O        2.8941090453       3.5701300248       7.0723693373
       O        2.9842714285      18.0816295145      -0.1632984006
       O        2.8011957487      20.5398484598      21.1631997967
       O        4.2065429203      25.2689238094       0.7144012467
       O        4.3424233279      22.6805535025       0.2483423145
       O        2.9703771788      16.4695428963       1.6751362929
       O        2.8842924058      14.0315717793       1.8425825948
       O        4.4363637284      18.2431532912       2.5511700584
       O        4.3410952337      20.6976946965       1.8493839357
       O        2.9501535053      22.7183790673       2.9668669335
       O        2.8900661856      25.0872679608       3.3654548694
       O        4.3265020095      14.0512908491       4.6678256369
       O        4.3257029200      16.4481161439       4.4977599462
       O        2.9701983143      18.4384157109       5.3875438293
       O        2.9569936111      20.4602977026       4.0973342177
       O        3.6815486311      22.3139325463       5.6194449397
       O        4.2762149361      24.7760240366       5.8440674949
       O        3.5992076213      13.8509384125       8.3445277067
       O        2.8982606598      16.4493675940       6.8973946659
       O        5.7651717304       5.1348209502       0.0052431307
       O        5.8437733539       7.5732797836      21.1733672062
       O        7.1781238989      12.3183295089       0.7965948699
       O        7.1966322446       9.6914916830       0.3152323407
       O        5.7670161225       3.4980745510       1.8321769153
       O        5.7718845139       1.1420397789       2.0846256632
       O        7.2132617635       5.3831171095       2.6990992123
       O        7.2095920927       7.7408540886       1.9274913847
       O        5.6929381794       9.6354656964       2.7267784817
       O        5.6835922650      12.0720931647       3.3704558613
       O        7.1237742268       0.8954407800       4.5706299852
       O        7.2046374400       3.3480890499       4.3273845408
       O        5.7548077267       5.2891188310       5.3053724528
       O        5.6810863543       7.4857522194       4.0908743177
       O        6.7303890256       9.5211099580       5.5258452216
       O        6.9888103387      11.9216839064       6.0139119804
       O        4.9838149295       0.8212559448       7.0583528204
       O        5.7669534962       3.5067733539       7.0552142958
       O        5.7502404588      18.4844009741       0.0865060202
       O        6.3251432391      20.7754101334      21.0905502893
       O        7.3713938778      25.3511211342       0.7985778131
       O        7.2796484800      22.8053713773       0.3976956269
       O        5.6849617707      16.2089744410       0.7186087262
       O        5.7024704645      14.1628669009       2.0238811148
       O        7.1970294849      18.4228670780       2.5806603883
       O        7.2868679259      20.8065838454       2.1539134152
       O        5.7615289165      22.6609933451       2.9688798265
       O        5.7463937554      25.0604125367       3.3562552637
       O        7.2233134452      13.9489531728       4.6686265855
       O        7.1829149678      16.2319653306       3.7602982578
       O        5.7757941650      18.2625067815       5.3816706047
       O        5.6757249618      20.6176525297       4.4113355673
       O        7.2060116883      22.4775441506       5.3777062561
       O        7.0573423027      24.8763429875       5.9425878052
       O        4.6486960702      13.7730507595       8.9858553261
       O        5.2000530792      17.6107124518       7.7006733171
       O        1.6030004783       5.8689417159       7.4661383914
       H        1.3266866099       5.5496978665       8.3571447231
       O        1.3695109576      18.8220142850       7.6966112750
       H        1.7788183209      18.4342738266       8.5014923035
       O        4.3286953739       5.7129082540       7.5450016936
       H        4.0157694492       5.2704351578       8.3617555491
       O        6.9646897337       5.8663058475       7.5401941632
       H        5.9310998552       5.9711349442       7.6014639468
       O        7.4543569099      19.0734328512       7.8669181574
       H        7.4258686108      18.8998365037       8.8325868860
       H        7.1118419150      15.2626324021       5.9607192108
       O        6.6394553116      15.7612125434       6.6627922187
     &END COORD
     &KIND "Co"
       BASIS_SET "TZVP-MOLOPT-PBE-GTH-q17"
       MAGNETIZATION  3.0000000000000000E+000
       ELEMENT "Co"
       POTENTIAL "GTH-PBE"
       &POTENTIAL
 4 6 7
 3.5499999999999998E-001 2  4.8281973599999999E+000  3.6814300999999999E-001
 3
 2.7680075999999998E-001 2 -5.8449582000000000E-001  9.2862927699999993E+000
 -1.1988552420000000E+001
 2.6815782999999999E-001 2 -6.8519534899999996E+000  5.6801328000000000E+000
 -6.7208237600000000E+000
 2.2258414000000001E-001 1 -1.2333150190000000E+001
       &END POTENTIAL
       &DFT_PLUS_U T
         L 2
         U_MINUS_J  1.2127277382862318E-001
       &END DFT_PLUS_U
     &END KIND
     &KIND "H"
       BASIS_SET "TZVP-MOLOPT-PBE-GTH-q1"
       ELEMENT "H"
       POTENTIAL "GTH-PBE"
       &POTENTIAL
 1
 2.0000000000000001E-001 2 -4.1789004399999996E+000  7.2446330999999997E-001
 0
       &END POTENTIAL
     &END KIND
     &KIND "O"
       BASIS_SET "TZVP-MOLOPT-PBE-GTH-q6"
       ELEMENT "O"
       POTENTIAL "GTH-PBE"
       &POTENTIAL
 2 4
 2.4455430000000000E-001 2 -1.6667214800000000E+001  2.4873113199999999E+000
 2
 2.2095592000000000E-001 1  1.8337458110000000E+001
 2.1133246999999999E-001 0
       &END POTENTIAL
     &END KIND
     &KIND "Al"
       BASIS_SET "DZVP-MOLOPT-PBE-GTH-q3"
       ELEMENT "Al"
       POTENTIAL "GTH-PBE"
       &POTENTIAL
 2 1
 4.5000000000000001E-001 1 -7.5547612600000003E+000
 2
 4.8743529000000002E-001 2  6.9599383200000000E+000 -1.8888358400000000E+000
 2.4384765900000001E+000
 5.6218948999999996E-001 1  1.8652985700000000E+000
       &END POTENTIAL
     &END KIND
     &TOPOLOGY
       NUMBER_OF_ATOMS 222
       MULTIPLE_UNIT_CELL 1 1 1
     &END TOPOLOGY
   &END SUBSYS
 &END FORCE_EVAL
